evm/ejemplos_dzn/EthPriceMintModule_run_code_of_0_block_101_0_inputSTACKDEP.dzn
TERM = { '.', s0, s3, s4};
null = '.';
s = 3;
n = 3;
min = 3;
N0 = 0;
ZEROARYOP = {};
zeroout = [];
zerogas = [];
zerosz =  [];
zerolb =  [];
zeroub =  [];
N1 = 1;
UNARYOP = { ISZERO_0 };
unin = [ s0 ];
unout = [ s4 ];
ungas = [ 3 ];
unsz = [ 1 ];
unlb = [ 1 ];
unub = [ 3 ];
N2 = 0;
BINARYOP = {};
binin1 =  [];
binin2 =  [];
binout = [];
bincomm = [];
bingas = [];
binsz =  [];
binlb =  [];
binub =  [];
NA = 0;
ASSOCIATIVEADDOP = {};
naddin =  [];
addin =  [||];
addout = [];
addcomm = [];
addgas = [];
addsz =  [];
addlb =  [];
addub =  [];
NPUSH = 1;
PUSHOP = { 'PUSH [tag]_0' };
pushout = [ s3 ];
pushgas = [ 3 ];
pushsz = [ 3 ];
pushlb = [ 1 ];
pushub = [ 3 ];
NSTORE = 0;
STOROP = {};
storin1 =  [];
storin2 =  [];
storlb =  [];
storub =  [];
storgas = [];
storsz = [];
DUP_ENUM = { DUP1, DUP2};
SWAP_ENUM = { SWAP1, SWAP2};
startstack = [ s0, null, null ];
endstack = [ s3, s4, s0 ];
m_dep_n = 0;
memory_dependences = [| |];
s_dep_n = 0;
store_dependences = [| |];
lib = true;
nlib = 0;
lib_elem = [| |];
lib_dis = [];
