evm/ejemplos_results/EthPriceMintModule_run_code_of_0_block_101_0_inputSTACKDEP.txt
value = 3;
fgas = [3, 3, 3];
fsize = [3, 1, 1];
states = 
[| s0, '.', '.'
 | s3,  s0, '.'
 | s0,  s3,  s0
 | s4,  s3,  s0
 |];
program = [P('PUSH [tag]_0'), D(DUP2), U(ISZERO_0)];
% time elapsed: 0.48 s
----------
==========
% time elapsed: 0.48 s
% [value > 2]
